15,6	0,0	10,9	13,6	0,0	0,0	0,0	0,0	0,0	8,7
13,9	11,3	0,0	9,4	7,2	0,0	0,0	9,3	0,0	0,0
0,0	0,0	11,7	0,0	10,6	15,0	0,0	0,0	10,5	0,0
7,3	0,0	14,3	0,0	0,0	0,0	16,0	0,0	0,0	0,0
0,0	12,7	0,0	16,4	13,9	0,0	0,0	11,5	0,0	0,0
0,0	19,8	15,8	0,0	7,8	9,4	0,0	0,0	18,1	0,0
0,0	11,0	0,0	8,4	0,0	0,0	8,4	0,0	0,0	14,2
10,6	0,0	17,1	0,0	0,0	0,0	0,0	0,0	0,0	9,3
0,0	16,5	0,0	19,7	19,2	0,0	0,0	12,0	0,0	0,0
0,0	0,0	11,4	0,0	0,0	9,7	5,6	0,0	0,0	5,5
									
4,0	3,5	2,6	3,4	4,1	5,0	3,1	2,6	4,7	3,4
